p cnf 12 25
-12 9 -8 0
-12 9 -7 0
12 9 5 0
12 8 7 0
-11 10 8 0
11 9 -1 0
-11 9 -1 0
-11 8 7 0
11 7 -1 0
-11 4 1 0
10 -7 -6 0
-10 7 -1 0
-10 -7 -1 0
-10 6 -3 0
10 -6 -1 0
-10 -4 -2 0
-9 7 6 0
9 -6 5 0
-8 7 2 0
-8 7 -1 0
-8 4 -3 0
-7 -6 -1 0
7 4 -2 0
7 -3 -1 0
-5 2 1 0
